# Objective value = 1.0499999985062241e+03
x[0,0] 0
x[0,1] 0
x[0,2] 0
x[0,3] 1
x[0,4] 0
x[0,5] 0
x[0,6] 0
x[0,7] 0
x[0,8] 0
x[0,9] 0
x[0,10] 0
x[0,11] 0
x[0,12] 0
x[0,13] 0
x[0,14] 0
x[0,15] 0
x[0,16] 0
x[0,17] 0
x[0,18] 0
x[0,19] 0
x[1,0] 0
x[1,1] 0
x[1,2] 0
x[1,3] 0
x[1,4] 0
x[1,5] 0
x[1,6] 0
x[1,7] 0
x[1,8] 0
x[1,9] 0
x[1,10] 0
x[1,11] 0
x[1,12] 0
x[1,13] 0
x[1,14] 0
x[1,15] 0
x[1,16] 0
x[1,17] 1
x[1,18] 0
x[1,19] 0
x[2,0] 0
x[2,1] 0
x[2,2] 0
x[2,3] 0
x[2,4] 0
x[2,5] 0
x[2,6] 0
x[2,7] 0
x[2,8] 0
x[2,9] 0
x[2,10] 0
x[2,11] 0
x[2,12] 0
x[2,13] 1
x[2,14] 0
x[2,15] 0
x[2,16] 0
x[2,17] 0
x[2,18] 0
x[2,19] 0
x[3,0] 0
x[3,1] 0
x[3,2] 0
x[3,3] 0
x[3,4] 0
x[3,5] 0
x[3,6] 0
x[3,7] 0
x[3,8] 0
x[3,9] 0
x[3,10] 1
x[3,11] 0
x[3,12] 0
x[3,13] 0
x[3,14] 0
x[3,15] 0
x[3,16] 0
x[3,17] 0
x[3,18] 0
x[3,19] 0
x[4,0] 0
x[4,1] 0
x[4,2] 0
x[4,3] 0
x[4,4] 0
x[4,5] 0
x[4,6] 0
x[4,7] 0
x[4,8] 0
x[4,9] 0
x[4,10] 0
x[4,11] 0
x[4,12] 1
x[4,13] 0
x[4,14] 0
x[4,15] 0
x[4,16] 0
x[4,17] 0
x[4,18] 0
x[4,19] 0
x[5,0] 0
x[5,1] 0
x[5,2] 0
x[5,3] 0
x[5,4] 0
x[5,5] 0
x[5,6] 0
x[5,7] 0
x[5,8] 0
x[5,9] 0
x[5,10] 0
x[5,11] 1
x[5,12] 0
x[5,13] 0
x[5,14] 0
x[5,15] 0
x[5,16] 0
x[5,17] 0
x[5,18] 0
x[5,19] 0
x[6,0] 0
x[6,1] 0
x[6,2] 0
x[6,3] 0
x[6,4] 0
x[6,5] 0
x[6,6] 1
x[6,7] 0
x[6,8] 0
x[6,9] 0
x[6,10] 0
x[6,11] 0
x[6,12] 0
x[6,13] 0
x[6,14] 0
x[6,15] 0
x[6,16] 0
x[6,17] 0
x[6,18] 0
x[6,19] 0
x[7,0] 0
x[7,1] 0
x[7,2] 0
x[7,3] 0
x[7,4] 0
x[7,5] 0
x[7,6] 0
x[7,7] 0
x[7,8] 0
x[7,9] 0
x[7,10] 0
x[7,11] 0
x[7,12] 0
x[7,13] 0
x[7,14] 0
x[7,15] 1
x[7,16] 0
x[7,17] 0
x[7,18] 0
x[7,19] 0
x[8,0] 0
x[8,1] 0
x[8,2] 1
x[8,3] 0
x[8,4] 0
x[8,5] 0
x[8,6] 0
x[8,7] 0
x[8,8] 0
x[8,9] 0
x[8,10] 0
x[8,11] 0
x[8,12] 0
x[8,13] 0
x[8,14] 0
x[8,15] 0
x[8,16] 0
x[8,17] 0
x[8,18] 0
x[8,19] 0
x[9,0] 0
x[9,1] 0
x[9,2] 0
x[9,3] 0
x[9,4] 0
x[9,5] 1
x[9,6] 0
x[9,7] 0
x[9,8] 0
x[9,9] 0
x[9,10] 0
x[9,11] 0
x[9,12] 0
x[9,13] 0
x[9,14] 0
x[9,15] 0
x[9,16] 0
x[9,17] 0
x[9,18] 0
x[9,19] 0
x[10,0] 0
x[10,1] 0
x[10,2] 0
x[10,3] 0
x[10,4] 1
x[10,5] 0
x[10,6] 0
x[10,7] 0
x[10,8] 0
x[10,9] 0
x[10,10] 0
x[10,11] 0
x[10,12] 0
x[10,13] 0
x[10,14] 0
x[10,15] 0
x[10,16] 0
x[10,17] 0
x[10,18] 0
x[10,19] 0
x[11,0] 0
x[11,1] 0
x[11,2] 0
x[11,3] 0
x[11,4] 0
x[11,5] 0
x[11,6] 0
x[11,7] 0
x[11,8] 1
x[11,9] 0
x[11,10] 0
x[11,11] 0
x[11,12] 0
x[11,13] 0
x[11,14] 0
x[11,15] 0
x[11,16] 0
x[11,17] 0
x[11,18] 0
x[11,19] 0
x[12,0] 0
x[12,1] 0
x[12,2] 0
x[12,3] 0
x[12,4] 0
x[12,5] 0
x[12,6] 0
x[12,7] 0
x[12,8] 0
x[12,9] 0
x[12,10] 0
x[12,11] 0
x[12,12] 0
x[12,13] 0
x[12,14] 1
x[12,15] 0
x[12,16] 0
x[12,17] 0
x[12,18] 0
x[12,19] 0
x[13,0] 0
x[13,1] 0
x[13,2] 0
x[13,3] 0
x[13,4] 0
x[13,5] 0
x[13,6] 0
x[13,7] 0
x[13,8] 0
x[13,9] 1
x[13,10] 0
x[13,11] 0
x[13,12] 0
x[13,13] 0
x[13,14] 0
x[13,15] 0
x[13,16] 0
x[13,17] 0
x[13,18] 0
x[13,19] 0
x[14,0] 0
x[14,1] 0
x[14,2] 0
x[14,3] 0
x[14,4] 0
x[14,5] 0
x[14,6] 0
x[14,7] 0
x[14,8] 0
x[14,9] 0
x[14,10] 0
x[14,11] 0
x[14,12] 0
x[14,13] 0
x[14,14] 0
x[14,15] 0
x[14,16] 0
x[14,17] 0
x[14,18] 1
x[14,19] 0
x[15,0] 0
x[15,1] 0
x[15,2] 0
x[15,3] 0
x[15,4] 0
x[15,5] 0
x[15,6] 0
x[15,7] 0
x[15,8] 0
x[15,9] 0
x[15,10] 0
x[15,11] 0
x[15,12] 0
x[15,13] 0
x[15,14] 0
x[15,15] 0
x[15,16] 1
x[15,17] 0
x[15,18] 0
x[15,19] 0
x[16,0] 0
x[16,1] 0
x[16,2] 0
x[16,3] 0
x[16,4] 0
x[16,5] 0
x[16,6] 0
x[16,7] 1
x[16,8] 0
x[16,9] 0
x[16,10] 0
x[16,11] 0
x[16,12] 0
x[16,13] 0
x[16,14] 0
x[16,15] 0
x[16,16] 0
x[16,17] 0
x[16,18] 0
x[16,19] 0
x[17,0] 1
x[17,1] 0
x[17,2] 0
x[17,3] 0
x[17,4] 0
x[17,5] 0
x[17,6] 0
x[17,7] 0
x[17,8] 0
x[17,9] 0
x[17,10] 0
x[17,11] 0
x[17,12] 0
x[17,13] 0
x[17,14] 0
x[17,15] 0
x[17,16] 0
x[17,17] 0
x[17,18] 0
x[17,19] 0
x[18,0] 0
x[18,1] 1
x[18,2] 0
x[18,3] 0
x[18,4] 0
x[18,5] 0
x[18,6] 0
x[18,7] 0
x[18,8] 0
x[18,9] 0
x[18,10] 0
x[18,11] 0
x[18,12] 0
x[18,13] 0
x[18,14] 0
x[18,15] 0
x[18,16] 0
x[18,17] 0
x[18,18] 0
x[18,19] 0
x[19,0] 0
x[19,1] 0
x[19,2] 0
x[19,3] 0
x[19,4] 0
x[19,5] 0
x[19,6] 0
x[19,7] 0
x[19,8] 0
x[19,9] 0
x[19,10] 0
x[19,11] 0
x[19,12] 0
x[19,13] 0
x[19,14] 0
x[19,15] 0
x[19,16] 0
x[19,17] 0
x[19,18] 0
x[19,19] 1
y[0,0,0] 1
y[1,0,1] 1
y[2,0,1] 0
y[3,0,1] 1
y[4,0,1] 1
y[5,0,1] 0
y[6,0,1] 1
y[7,0,1] 1
y[8,0,1] 1
y[2,0,2] 1
y[3,0,2] 0
y[4,0,2] 0
y[5,0,2] 1
y[6,0,2] 0
y[7,0,2] 0
y[8,0,2] 0
y[9,0,2] 1
y[10,0,2] 0
y[11,0,2] 1
y[12,0,2] 0
y[13,0,2] 0
y[10,0,3] 1
y[11,0,3] 0
y[12,0,3] 1
y[13,0,3] 1
y[14,0,3] 1
y[15,0,4] 1
y[0,1,0] 1
y[1,1,1] 1
y[2,1,1] 0
y[3,1,1] 1
y[4,1,1] 0
y[5,1,1] 1
y[6,1,1] 1
y[7,1,1] 0
y[8,1,1] 0
y[2,1,2] 1
y[3,1,2] 0
y[4,1,2] 1
y[5,1,2] 0
y[6,1,2] 0
y[7,1,2] 1
y[8,1,2] 1
y[9,1,2] 1
y[10,1,2] 0
y[11,1,2] 0
y[12,1,2] 0
y[13,1,2] 0
y[10,1,3] 1
y[11,1,3] 1
y[12,1,3] 1
y[13,1,3] 1
y[14,1,3] 1
y[15,1,4] 1
y[0,2,0] 1
y[1,2,1] 1
y[2,2,1] 0
y[3,2,1] 1
y[4,2,1] 1
y[5,2,1] 1
y[6,2,1] 1
y[7,2,1] 0
y[8,2,1] 1
y[2,2,2] 1
y[3,2,2] 0
y[4,2,2] 0
y[5,2,2] 0
y[6,2,2] 0
y[7,2,2] 1
y[8,2,2] 0
y[9,2,2] 1
y[10,2,2] 0
y[11,2,2] 0
y[12,2,2] 0
y[13,2,2] 0
y[10,2,3] 1
y[11,2,3] 1
y[12,2,3] 1
y[13,2,3] 1
y[14,2,3] 1
y[15,2,4] 1
y[0,3,0] 1
y[1,3,1] 1
y[2,3,1] 0
y[3,3,1] 1
y[4,3,1] 0
y[5,3,1] 1
y[6,3,1] 1
y[7,3,1] 1
y[8,3,1] 0
y[2,3,2] 1
y[3,3,2] 0
y[4,3,2] 1
y[5,3,2] 0
y[6,3,2] 0
y[7,3,2] 0
y[8,3,2] 1
y[9,3,2] 1
y[10,3,2] 0
y[11,3,2] 1
y[12,3,2] 0
y[13,3,2] 0
y[10,3,3] 1
y[11,3,3] 0
y[12,3,3] 1
y[13,3,3] 1
y[14,3,3] 1
y[15,3,4] 1
y[0,4,0] 1
y[1,4,1] 1
y[2,4,1] 0
y[3,4,1] 1
y[4,4,1] 1
y[5,4,1] 0
y[6,4,1] 1
y[7,4,1] 1
y[8,4,1] 0
y[2,4,2] 1
y[3,4,2] 0
y[4,4,2] 0
y[5,4,2] 1
y[6,4,2] 0
y[7,4,2] 0
y[8,4,2] 1
y[9,4,2] 1
y[10,4,2] 0
y[11,4,2] 1
y[12,4,2] 1
y[13,4,2] 0
y[10,4,3] 1
y[11,4,3] 0
y[12,4,3] 0
y[13,4,3] 1
y[14,4,3] 1
y[15,4,4] 1
y[0,5,0] 1
y[1,5,1] 1
y[2,5,1] 0
y[3,5,1] 1
y[4,5,1] 1
y[5,5,1] 1
y[6,5,1] 0
y[7,5,1] 0
y[8,5,1] 1
y[2,5,2] 1
y[3,5,2] 0
y[4,5,2] 0
y[5,5,2] 0
y[6,5,2] 1
y[7,5,2] 1
y[8,5,2] 0
y[9,5,2] 1
y[10,5,2] 0
y[11,5,2] 0
y[12,5,2] 0
y[13,5,2] 0
y[10,5,3] 1
y[11,5,3] 1
y[12,5,3] 1
y[13,5,3] 1
y[14,5,3] 1
y[15,5,4] 1
y[0,6,0] 1
y[1,6,1] 1
y[2,6,1] 0
y[3,6,1] 1
y[4,6,1] 0
y[5,6,1] 1
y[6,6,1] 1
y[7,6,1] 0
y[8,6,1] 1.0000007411736769e+00
y[2,6,2] 1
y[3,6,2] 0
y[4,6,2] 1
y[5,6,2] 0
y[6,6,2] 0
y[7,6,2] 1
y[8,6,2] -7.4486415092814920e-07
y[9,6,2] 1
y[10,6,2] 0
y[11,6,2] 1
y[12,6,2] 0
y[13,6,2] 0
y[10,6,3] 1
y[11,6,3] 0
y[12,6,3] 1
y[13,6,3] 1
y[14,6,3] 1
y[15,6,4] 1
y[0,7,0] 1
y[1,7,1] 1
y[2,7,1] 1
y[3,7,1] 1
y[4,7,1] 0
y[5,7,1] 1
y[6,7,1] 1
y[7,7,1] 0
y[8,7,1] 0
y[2,7,2] 0
y[3,7,2] 0
y[4,7,2] 1
y[5,7,2] 0
y[6,7,2] 0
y[7,7,2] 1
y[8,7,2] 1
y[9,7,2] 1
y[10,7,2] 0
y[11,7,2] 1
y[12,7,2] 1
y[13,7,2] 0
y[10,7,3] 1
y[11,7,3] 0
y[12,7,3] 0
y[13,7,3] 1
y[14,7,3] 1
y[15,7,4] 1
y[0,8,0] 1
y[1,8,1] 1
y[2,8,1] 0
y[3,8,1] 1
y[4,8,1] 0
y[5,8,1] 1
y[6,8,1] 1
y[7,8,1] 1
y[8,8,1] 1
y[2,8,2] 1
y[3,8,2] 0
y[4,8,2] 1
y[5,8,2] 0
y[6,8,2] 0
y[7,8,2] 0
y[8,8,2] 0
y[9,8,2] 1
y[10,8,2] 0
y[11,8,2] 1
y[12,8,2] 0
y[13,8,2] 0
y[10,8,3] 1
y[11,8,3] 0
y[12,8,3] 1
y[13,8,3] 1
y[14,8,3] 1
y[15,8,4] 1
y[0,9,0] 1
y[1,9,1] 1
y[2,9,1] 0
y[3,9,1] 1
y[4,9,1] 1
y[5,9,1] 1
y[6,9,1] 1
y[7,9,1] 0
y[8,9,1] 1
y[2,9,2] 1
y[3,9,2] 0
y[4,9,2] 0
y[5,9,2] 0
y[6,9,2] 0
y[7,9,2] 1
y[8,9,2] 0
y[9,9,2] 1
y[10,9,2] 0
y[11,9,2] 1
y[12,9,2] 0
y[13,9,2] 0
y[10,9,3] 1
y[11,9,3] 0
y[12,9,3] 1
y[13,9,3] 1
y[14,9,3] 1
y[15,9,4] 1
y[0,10,0] 1
y[1,10,1] 1
y[2,10,1] 0
y[3,10,1] 1
y[4,10,1] 0
y[5,10,1] 1
y[6,10,1] 1
y[7,10,1] 1
y[8,10,1] 1
y[2,10,2] 1
y[3,10,2] 0
y[4,10,2] 1
y[5,10,2] 0
y[6,10,2] 0
y[7,10,2] 0
y[8,10,2] 0
y[9,10,2] 1
y[10,10,2] 0
y[11,10,2] 1
y[12,10,2] 0
y[13,10,2] 0
y[10,10,3] 1
y[11,10,3] 0
y[12,10,3] 1
y[13,10,3] 1
y[14,10,3] 1
y[15,10,4] 1
y[0,11,0] 1
y[1,11,1] 1
y[2,11,1] 1
y[3,11,1] 1
y[4,11,1] 0
y[5,11,1] 0
y[6,11,1] 1
y[7,11,1] 1
y[8,11,1] 0
y[2,11,2] 0
y[3,11,2] 0
y[4,11,2] 1
y[5,11,2] 1
y[6,11,2] 0
y[7,11,2] 0
y[8,11,2] 1
y[9,11,2] 1
y[10,11,2] 0
y[11,11,2] 1
y[12,11,2] 1
y[13,11,2] 0
y[10,11,3] 1
y[11,11,3] 0
y[12,11,3] 0
y[13,11,3] 1
y[14,11,3] 1
y[15,11,4] 1
y[0,12,0] 1
y[1,12,1] 1
y[2,12,1] 0
y[3,12,1] 1
y[4,12,1] 1
y[5,12,1] 0
y[6,12,1] 0
y[7,12,1] 1
y[8,12,1] 1
y[2,12,2] 1
y[3,12,2] 0
y[4,12,2] 0
y[5,12,2] 1
y[6,12,2] 1
y[7,12,2] 0
y[8,12,2] 0
y[9,12,2] 1
y[10,12,2] 0
y[11,12,2] 1
y[12,12,2] 0
y[13,12,2] 0
y[10,12,3] 1
y[11,12,3] 0
y[12,12,3] 1
y[13,12,3] 1
y[14,12,3] 1
y[15,12,4] 1
y[0,13,0] 1
y[1,13,1] 1
y[2,13,1] 0
y[3,13,1] 1
y[4,13,1] 1
y[5,13,1] 1
y[6,13,1] 1
y[7,13,1] 1
y[8,13,1] 0
y[2,13,2] 1
y[3,13,2] 0
y[4,13,2] 0
y[5,13,2] 0
y[6,13,2] 0
y[7,13,2] 0
y[8,13,2] 1
y[9,13,2] 1
y[10,13,2] 0
y[11,13,2] 1
y[12,13,2] 0
y[13,13,2] 0
y[10,13,3] 1
y[11,13,3] 0
y[12,13,3] 1
y[13,13,3] 1
y[14,13,3] 1
y[15,13,4] 1
y[0,14,0] 1
y[1,14,1] 1
y[2,14,1] 0
y[3,14,1] 1
y[4,14,1] 0
y[5,14,1] 1
y[6,14,1] 1
y[7,14,1] 0
y[8,14,1] 1
y[2,14,2] 1
y[3,14,2] 0
y[4,14,2] 1
y[5,14,2] 0
y[6,14,2] 0
y[7,14,2] 1
y[8,14,2] 0
y[9,14,2] 1
y[10,14,2] 0
y[11,14,2] 1
y[12,14,2] 1
y[13,14,2] 0
y[10,14,3] 1
y[11,14,3] 0
y[12,14,3] 0
y[13,14,3] 1
y[14,14,3] 1
y[15,14,4] 1
y[0,15,0] 1
y[1,15,1] 1
y[2,15,1] 1
y[3,15,1] 1
y[4,15,1] 1
y[5,15,1] 0
y[6,15,1] 1
y[7,15,1] 0
y[8,15,1] 1
y[2,15,2] 0
y[3,15,2] 0
y[4,15,2] 0
y[5,15,2] 1
y[6,15,2] 0
y[7,15,2] 1
y[8,15,2] 0
y[9,15,2] 1
y[10,15,2] 0
y[11,15,2] 1
y[12,15,2] 0
y[13,15,2] 0
y[10,15,3] 1
y[11,15,3] 0
y[12,15,3] 1
y[13,15,3] 1
y[14,15,3] 1
y[15,15,4] 1
y[0,16,0] 1
y[1,16,1] 1
y[2,16,1] 0
y[3,16,1] 1
y[4,16,1] 0
y[5,16,1] 9.9999983458044983e-01
y[6,16,1] 1
y[7,16,1] 1
y[8,16,1] 0
y[2,16,2] 1
y[3,16,2] 0
y[4,16,2] 1
y[5,16,2] 1.6041955016879938e-07
y[6,16,2] 0
y[7,16,2] 0
y[8,16,2] 1
y[9,16,2] 1
y[10,16,2] 0
y[11,16,2] 1
y[12,16,2] 0
y[13,16,2] 0
y[10,16,3] 1
y[11,16,3] 0
y[12,16,3] 1
y[13,16,3] 1
y[14,16,3] 1
y[15,16,4] 1
y[0,17,0] 1
y[1,17,1] 1
y[2,17,1] 0
y[3,17,1] 1
y[4,17,1] 0
y[5,17,1] 1
y[6,17,1] 1
y[7,17,1] 1
y[8,17,1] 1
y[2,17,2] 1
y[3,17,2] 0
y[4,17,2] 1
y[5,17,2] 0
y[6,17,2] 0
y[7,17,2] 0
y[8,17,2] 0
y[9,17,2] 1
y[10,17,2] 0
y[11,17,2] 1
y[12,17,2] 1
y[13,17,2] 0
y[10,17,3] 1
y[11,17,3] 0
y[12,17,3] 0
y[13,17,3] 1
y[14,17,3] 1
y[15,17,4] 1
y[0,18,0] 1
y[1,18,1] 1
y[2,18,1] 0
y[3,18,1] 1
y[4,18,1] 1
y[5,18,1] 1
y[6,18,1] 1
y[7,18,1] 0
y[8,18,1] 1
y[2,18,2] 1
y[3,18,2] 0
y[4,18,2] 0
y[5,18,2] 0
y[6,18,2] 0
y[7,18,2] 1
y[8,18,2] 0
y[9,18,2] 1
y[10,18,2] 0
y[11,18,2] 1
y[12,18,2] 0
y[13,18,2] 0
y[10,18,3] 1
y[11,18,3] 0
y[12,18,3] 1
y[13,18,3] 1
y[14,18,3] 1
y[15,18,4] 1
y[0,19,0] 1
y[1,19,1] 1
y[2,19,1] 1
y[3,19,1] 1
y[4,19,1] 1
y[5,19,1] 1
y[6,19,1] 1
y[7,19,1] 1
y[8,19,1] 1
y[2,19,2] 0
y[3,19,2] 0
y[4,19,2] 0
y[5,19,2] 0
y[6,19,2] 0
y[7,19,2] 0
y[8,19,2] 0
y[9,19,2] 1
y[10,19,2] 0
y[11,19,2] 1
y[12,19,2] 1
y[13,19,2] 1
y[10,19,3] 1
y[11,19,3] 0
y[12,19,3] 0
y[13,19,3] 0
y[14,19,3] 1
y[15,19,4] 1
s[0,0] 0
s[0,1] 19
s[0,2] 59
s[0,3] 108
s[0,4] 153
s[1,0] 19
s[1,1] 59
s[1,2] 1.0899999999999997e+02
s[1,3] 153
s[1,4] 198
s[2,0] 59
s[2,1] 109
s[2,2] 153
s[2,3] 198
s[2,4] 245
s[3,0] 109
s[3,1] 153
s[3,2] 198
s[3,3] 245
s[3,4] 2.9299999999999380e+02
s[4,0] 153
s[4,1] 198
s[4,2] 245
s[4,3] 293
s[4,4] 336
s[5,0] 198
s[5,1] 245
s[5,2] 293
s[5,3] 336
s[5,4] 3.8299999850622407e+02
s[6,0] 245
s[6,1] 293
s[6,2] 336
s[6,3] 3.8299999850622407e+02
s[6,4] 4.2999999850622407e+02
s[7,0] 293
s[7,1] 336
s[7,2] 3.8299999850622407e+02
s[7,3] 4.2999999850622407e+02
s[7,4] 4.7899999850622407e+02
s[8,0] 336
s[8,1] 3.8299999850622407e+02
s[8,2] 4.2999999850622407e+02
s[8,3] 4.8299999850622407e+02
s[8,4] 5.2099999850622407e+02
s[9,0] 383
s[9,1] 4.2999999850622407e+02
s[9,2] 4.8299999850622356e+02
s[9,3] 5.2099999850622407e+02
s[9,4] 5.7299999850622407e+02
s[10,0] 430
s[10,1] 4.8299999850622356e+02
s[10,2] 5.2099999850622407e+02
s[10,3] 5.7299999850622407e+02
s[10,4] 6.2299999850622407e+02
s[11,0] 483
s[11,1] 5.2099999850622407e+02
s[11,2] 5.7299999850622407e+02
s[11,3] 6.2399999850622407e+02
s[11,4] 6.7499999850622407e+02
s[12,0] 521
s[12,1] 5.7299999850622407e+02
s[12,2] 6.2399999850622407e+02
s[12,3] 6.7499999850622407e+02
s[12,4] 7.1399999850622407e+02
s[13,0] 573
s[13,1] 6.2399999850622407e+02
s[13,2] 6.7599999850622407e+02
s[13,3] 7.1399999850622407e+02
s[13,4] 7.6399999850622407e+02
s[14,0] 624
s[14,1] 6.7599999850622407e+02
s[14,2] 7.1399999850622407e+02
s[14,3] 7.6499999850622407e+02
s[14,4] 8.1699999850622419e+02
s[15,0] 676
s[15,1] 7.1399999850622407e+02
s[15,2] 7.6499999850622407e+02
s[15,3] 8.1699999850622419e+02
s[15,4] 8.5899999850622373e+02
s[16,0] 714
s[16,1] 7.6499999850622407e+02
s[16,2] 8.1699999850622407e+02
s[16,3] 8.5899999850622373e+02
s[16,4] 9.0799999850622373e+02
s[17,0] 765
s[17,1] 8.1699999850622407e+02
s[17,2] 8.5899999850622407e+02
s[17,3] 9.0999999850622407e+02
s[17,4] 9.6799999850622407e+02
s[18,0] 817
s[18,1] 8.5899999850622407e+02
s[18,2] 9.0999999850622407e+02
s[18,3] 9.6799999850622407e+02
s[18,4] 1.0069999985062241e+03
s[19,0] 859
s[19,1] 9.0999999850622407e+02
s[19,2] 9.6799999850622407e+02
s[19,3] 1.0089999985062241e+03
s[19,4] 1.0359999985062241e+03
P[0,0] 19
P[0,1] 40
P[0,2] 49
P[0,3] 45
P[0,4] 45
P[1,0] 21
P[1,1] 50
P[1,2] 44
P[1,3] 45
P[1,4] 47
P[2,0] 22
P[2,1] 44
P[2,2] 45
P[2,3] 47
P[2,4] 4.7999999999993804e+01
P[3,0] 24
P[3,1] 45
P[3,2] 45
P[3,3] 48
P[3,4] 4.3000000000006196e+01
P[4,0] 25
P[4,1] 47
P[4,2] 48
P[4,3] 43
P[4,4] 4.6999998506224074e+01
P[5,0] 23
P[5,1] 48
P[5,2] 43
P[5,3] 4.6999998508724076e+01
P[5,4] 47
P[6,0] 23
P[6,1] 43
P[6,2] 4.6999998509557408e+01
P[6,3] 47
P[6,4] 49
P[7,0] 24
P[7,1] 4.6999998509557408e+01
P[7,2] 47
P[7,3] 49
P[7,4] 42
P[8,0] 21
P[8,1] 47
P[8,2] 53
P[8,3] 38
P[8,4] 52
P[9,0] 22
P[9,1] 53
P[9,2] 38
P[9,3] 49
P[9,4] 50
P[10,0] 25
P[10,1] 38
P[10,2] 52
P[10,3] 50
P[10,4] 52
P[11,0] 19
P[11,1] 52
P[11,2] 51
P[11,3] 50
P[11,4] 39
P[12,0] 20
P[12,1] 51
P[12,2] 51
P[12,3] 39
P[12,4] 50
P[13,0] 26
P[13,1] 52
P[13,2] 38
P[13,3] 50
P[13,4] 5.3000000000000114e+01
P[14,0] 24
P[14,1] 38
P[14,2] 51
P[14,3] 51
P[14,4] 4.1999999999999545e+01
P[15,0] 22
P[15,1] 51
P[15,2] 52
P[15,3] 42
P[15,4] 49
P[16,0] 25
P[16,1] 52
P[16,2] 42
P[16,3] 49
P[16,4] 6.0000000000000341e+01
P[17,0] 20
P[17,1] 42
P[17,2] 51
P[17,3] 57
P[17,4] 39
P[18,0] 21
P[18,1] 49
P[18,2] 58
P[18,3] 39
P[18,4] 29
P[19,0] 23
P[19,1] 58
P[19,2] 41
P[19,3] 27
P[19,4] 14
